20	5
0	6	3	1	8	4	2	5
1	5	6	7	19	9	17
2	4	12	19	9	13
3	4	7	9	11	19
4	7	7	16	20	19	15	14	17
5	5	11	19	18	16	13
6	4	16	18	15	10
7	1	21
8	2	17	6
9	4	18	15	16	14
10	1	21
11	3	10	17	15
12	2	14	21
13	1	21
14	1	21
15	1	21
16	1	21
17	1	21
18	1	21
19	1	21
20	1	21
21	0
0	0	0	0	0	0	0
1	9	5	1	0	5	0
2	2	0	4	0	1	0
3	5	1	4	0	2	4
4	9	2	0	4	1	3
5	9	4	1	5	2	1
6	2	2	2	0	1	0
7	7	4	3	5	4	5
8	6	4	2	2	5	2
9	9	5	0	5	0	0
10	7	5	3	4	3	2
11	1	4	5	4	2	3
12	8	0	4	1	0	2
13	2	5	5	4	4	1
14	1	2	0	5	3	0
15	9	3	4	3	4	4
16	9	2	3	3	1	0
17	4	0	0	4	3	4
18	4	0	1	0	0	3
19	10	2	4	1	3	5
20	8	0	0	4	0	2
21	0	0	0	0	0	0
11	12	12	11	12
